c Output_time 26.03.2020 18:13:21_+0100 1585242801694160186
c ** Program information **
c program_name                          "QBRG_debug"
c version                               "0.3.20"
c date                                  "25.3.2020"
c gid_id                                "673970833836058123f633335630c185360d632e"
c author                                "Oliver Kullmann"
c url                                   "https://github.com/OKullmann/oklibrary/blob/master/Satisfiability/Transformers/Generators/Random/QBRG.cpp"
c ** Machine information **
c machine_name                          "chyna-Lenovo-G50-70"
c bogomips                              3791.08
c ** Compilation information **
c compiler_version                      "g++ 7.5.0"
c compilation_date                      "Mar_26_2020 11:16:30"
c compilation_options                   "--std=c++17 -pedantic -fmax-errors=5 -Wall -Wextra -g -D_GLIBCXX_DEBUG"
c NDEBUG                                0
c OPTIMIZE                              0
c ** Parameters **
c command-line                          "./QBRG_debug" "e40 a40 40" "436*1,1|2-2,1|3-3,1" "" "1,t" ""
c output                                "QuBlRaGe_120_436_1585242801662390647.qdimacs"
c options                               "filtered,renamed"
c num_quantifier_blocks                 3
c  quantifier_blocks                    1:e1-40 2:a41-80 3:e81-120
c num_clause-blocks                     1
c  clause-blocks                        436 * {1-40,1,1/2} | {41-80,1,1/2} | {81-120,1,1/2}
c num_e-seeds                           30+2=32
c  e-seeds                              1 0 1 0 4 120 2 40 1 40 0 40 1 436 3 1 1 1 1 2 2 2 1 1 2 3 3 1 1 2 1 1585242801662389933
p cnf 120 436
e 1 2 3 4 5 6 7 8 9 10 11 12 13 14 15 16 17 18 19 20 21 22 23 24 25 26 27 28 29 30 31 32 33 34 35 36 37 38 39 40 0
a 41 42 43 44 45 46 47 48 49 50 51 52 53 54 55 56 57 58 59 60 61 62 63 64 65 66 67 68 69 70 71 72 73 74 75 76 77 78 79 80 0
e 81 82 83 84 85 86 87 88 89 90 91 92 93 94 95 96 97 98 99 100 101 102 103 104 105 106 107 108 109 110 111 112 113 114 115 116 117 118 119 120 0
-19 -60 -81 0
2 -63 -81 0
33 69 -81 0
-9 72 -81 0
-36 72 -81 0
-16 74 -81 0
-35 -79 -81 0
-19 -41 81 0
-33 -52 81 0
33 53 81 0
1 -56 81 0
-12 58 81 0
15 60 81 0
12 -49 -82 0
-29 -50 -82 0
-36 60 -82 0
22 61 -82 0
-32 -68 -82 0
18 72 -82 0
26 -42 82 0
40 44 82 0
34 -57 82 0
-35 43 -83 0
1 -47 -83 0
-10 -64 -83 0
1 64 -83 0
29 64 -83 0
29 -43 83 0
30 62 83 0
-30 70 83 0
-3 80 83 0
-5 48 -84 0
-34 48 -84 0
13 56 -84 0
31 -59 -84 0
-11 70 -84 0
-23 -79 -84 0
13 -61 84 0
-20 -64 84 0
-5 65 84 0
1 66 84 0
-14 70 84 0
-18 -75 84 0
10 -41 -85 0
36 55 -85 0
4 57 -85 0
-20 -63 -85 0
-15 -63 85 0
-22 67 85 0
39 53 -86 0
-6 62 -86 0
5 -75 -86 0
-2 -47 86 0
-23 -49 86 0
3 -56 86 0
-8 -56 86 0
-12 -66 86 0
40 -69 86 0
7 -80 86 0
30 -42 -87 0
31 44 -87 0
-19 -48 -87 0
-13 -50 -87 0
-16 78 -87 0
-10 41 87 0
-40 44 87 0
-7 -59 87 0
39 -60 87 0
-40 -64 87 0
2 72 87 0
-4 -47 -88 0
30 -48 -88 0
3 64 -88 0
-40 71 -88 0
2 42 88 0
10 -50 88 0
13 67 88 0
-36 67 88 0
-17 -77 88 0
2 46 -89 0
-31 -47 -89 0
40 -49 -89 0
-16 -56 -89 0
31 64 -89 0
-3 65 -89 0
-29 65 -89 0
35 69 -89 0
29 70 -89 0
20 51 89 0
-38 57 89 0
9 -61 89 0
24 -61 89 0
20 61 89 0
29 -65 89 0
-34 68 89 0
21 45 -90 0
-33 -53 -90 0
38 -55 -90 0
-18 64 -90 0
29 64 -90 0
5 66 -90 0
-39 -80 -90 0
14 -46 90 0
-7 -60 90 0
-11 60 90 0
-38 60 90 0
-11 -41 -91 0
38 -50 -91 0
25 58 -91 0
-20 59 -91 0
-6 -60 -91 0
13 60 -91 0
-19 -69 -91 0
11 69 -91 0
34 -71 -91 0
32 -56 91 0
-40 -59 91 0
36 -68 91 0
11 70 91 0
4 77 91 0
-31 42 -92 0
14 -45 -92 0
37 61 -92 0
25 65 -92 0
-30 67 -92 0
40 -72 -92 0
9 -76 -92 0
-32 48 92 0
-11 -63 92 0
-39 -66 92 0
-28 70 92 0
24 -50 -93 0
-39 -52 -93 0
-1 -67 -93 0
-2 -71 -93 0
-20 -73 -93 0
30 77 -93 0
30 -80 -93 0
25 53 93 0
-12 -62 93 0
-32 -72 93 0
26 -75 93 0
34 43 -94 0
17 -52 -94 0
-18 -56 -94 0
-35 70 -94 0
-38 77 -94 0
33 41 94 0
-17 -42 94 0
23 77 94 0
-37 78 94 0
-39 41 -95 0
27 -53 -95 0
-31 74 -95 0
-27 -42 95 0
-10 42 95 0
16 44 95 0
-22 54 95 0
-29 55 95 0
34 -62 95 0
-22 -68 95 0
22 -44 -96 0
-16 -57 -96 0
11 -59 -96 0
19 -55 96 0
6 -66 96 0
32 67 96 0
-18 68 96 0
24 70 96 0
22 -74 96 0
-31 43 -97 0
-8 52 -97 0
-24 61 -97 0
-34 -62 -97 0
-21 72 -97 0
-22 46 97 0
14 -51 97 0
-19 -55 97 0
1 67 97 0
-29 78 97 0
-38 41 -98 0
39 -47 -98 0
19 55 -98 0
-9 67 -98 0
24 -75 -98 0
23 -76 -98 0
-38 76 -98 0
-25 42 98 0
4 -44 98 0
16 -44 98 0
28 -44 98 0
-39 -50 98 0
-16 -69 98 0
-23 -69 98 0
11 -49 -99 0
32 55 -99 0
-23 -62 -99 0
-30 80 -99 0
19 -56 99 0
-15 -69 99 0
37 73 99 0
33 -43 -100 0
-8 44 -100 0
8 -51 -100 0
-25 -51 -100 0
26 57 -100 0
-35 -62 -100 0
23 62 -100 0
40 -66 -100 0
-8 69 -100 0
-21 73 -100 0
24 76 -100 0
-25 76 -100 0
37 79 -100 0
-28 -62 100 0
24 -64 100 0
13 66 100 0
-11 71 100 0
-13 -50 -101 0
31 51 -101 0
1 70 -101 0
-12 72 -101 0
-26 -49 101 0
14 49 101 0
-23 -55 101 0
-16 -63 101 0
-35 -64 101 0
-37 -68 101 0
10 -71 101 0
12 72 101 0
21 73 101 0
26 -59 -102 0
-24 -64 -102 0
-21 -47 102 0
33 47 102 0
-16 -48 102 0
34 48 102 0
-19 -75 102 0
-21 -76 102 0
11 -47 -103 0
18 49 103 0
13 58 103 0
-36 66 103 0
13 43 -104 0
-8 54 -104 0
36 54 -104 0
2 56 -104 0
-34 63 -104 0
-33 65 -104 0
35 68 -104 0
12 57 104 0
32 -59 104 0
-12 61 104 0
-17 68 104 0
-38 73 104 0
-19 -43 -105 0
26 47 -105 0
19 54 -105 0
-7 74 -105 0
27 50 105 0
-15 -71 105 0
4 71 105 0
-16 -77 105 0
-4 54 -106 0
-8 68 -106 0
-4 72 -106 0
-24 45 106 0
24 -46 106 0
6 50 106 0
-4 59 106 0
14 63 106 0
-35 -41 -107 0
27 -45 -107 0
1 -46 -107 0
32 49 -107 0
-14 51 -107 0
-25 69 -107 0
-32 -57 107 0
40 59 107 0
30 -63 107 0
32 65 107 0
-17 80 107 0
38 -44 -108 0
-12 45 -108 0
-27 -50 -108 0
17 -54 -108 0
4 63 -108 0
17 66 -108 0
-1 -41 108 0
30 -41 108 0
5 -56 108 0
-27 60 108 0
10 -62 108 0
37 76 108 0
21 43 -109 0
26 -64 -109 0
-34 77 -109 0
32 79 -109 0
-33 73 109 0
21 46 -110 0
-11 -42 110 0
20 44 110 0
35 -48 110 0
-3 -55 110 0
-40 62 110 0
-23 66 110 0
-1 -80 110 0
-3 80 110 0
35 52 -111 0
22 -56 -111 0
-28 61 -111 0
-13 68 -111 0
26 72 -111 0
-25 77 -111 0
-24 42 111 0
-14 52 111 0
-6 -67 111 0
-12 74 111 0
-1 -46 -112 0
39 -46 -112 0
-36 -41 112 0
34 41 112 0
18 52 112 0
11 -54 112 0
16 -62 112 0
29 -68 112 0
7 72 112 0
31 73 112 0
1 -76 112 0
-31 -76 112 0
-8 -79 112 0
10 80 112 0
-12 52 -113 0
-6 -61 -113 0
8 70 -113 0
33 -72 -113 0
-3 -41 113 0
-33 42 113 0
1 45 113 0
13 49 113 0
12 55 113 0
-19 -57 113 0
-8 -71 113 0
21 -80 113 0
13 -55 -114 0
-20 -58 -114 0
-17 58 -114 0
36 -59 -114 0
35 61 -114 0
-24 -73 -114 0
-2 42 114 0
-13 48 114 0
-30 49 114 0
-35 54 114 0
6 55 114 0
34 -62 114 0
21 66 114 0
-12 -71 114 0
28 -71 114 0
4 -76 114 0
-25 51 -115 0
-27 59 -115 0
25 74 -115 0
22 80 -115 0
27 -41 115 0
36 -46 115 0
17 -51 115 0
-12 -61 115 0
-20 66 115 0
-9 -77 115 0
-6 79 115 0
-1 -63 -116 0
39 63 -116 0
-19 -74 -116 0
8 78 -116 0
-36 48 116 0
20 -49 116 0
28 -55 116 0
-17 -56 116 0
7 56 116 0
-16 60 116 0
-6 -64 116 0
-23 70 116 0
22 -75 116 0
18 46 -117 0
20 53 -117 0
30 -54 -117 0
-28 -64 -117 0
-3 64 -117 0
-30 68 -117 0
24 70 -117 0
34 -71 -117 0
8 -78 -117 0
-13 -45 117 0
-4 49 117 0
-2 -50 117 0
-39 -60 117 0
1 61 117 0
-8 -76 117 0
-37 -41 -118 0
28 52 -118 0
-23 -76 -118 0
-16 -44 118 0
-37 -45 118 0
-14 -47 118 0
-1 -52 118 0
-27 -52 118 0
30 69 118 0
-39 76 118 0
-34 -79 118 0
-40 -44 -119 0
-20 -54 -119 0
37 -62 -119 0
-21 -70 -119 0
40 -71 -119 0
-23 -50 119 0
24 50 119 0
-14 64 119 0
-17 71 119 0
-12 -73 119 0
29 75 119 0
-26 -77 119 0
6 78 119 0
-1 45 -120 0
-18 46 -120 0
-28 49 -120 0
36 50 -120 0
21 51 -120 0
-31 -56 -120 0
-21 -66 -120 0
-7 -57 120 0
-28 63 120 0
-37 63 120 0
-37 72 120 0
21 73 120 0
35 -76 120 0
